p tw 118 132
1 2
2 31
3 14
4 5
5 6
5 19
6 7
7 8
8 9
9 10
9 16
10 11
11 12
12 13
13 15
14 23
15 16
16 17
17 18
18 118
19 20
20 21
21 22
23 24
23 26
24 25
25 26
26 27
27 28
28 29
29 30
30 32
30 34
31 42
32 33
33 34
33 37
34 35
35 36
36 37
37 38
38 39
39 40
40 41
41 43
42 53
43 44
44 45
45 46
45 81
46 47
47 48
48 49
49 50
49 59
50 51
51 52
52 54
53 64
54 55
55 56
56 57
57 58
58 39
59 60
60 61
60 81
61 62
62 63
63 65
63 81
64 75
65 66
66 67
67 68
68 69
69 70
69 72
70 71
71 74
72 73
73 74
74 76
75 86
76 77
77 78
78 79
79 80
80 39
81 82
82 83
83 84
84 85
84 96
85 87
86 97
87 88
88 89
88 90
89 21
90 91
91 92
92 93
93 94
94 95
95 75
96 98
97 108
98 99
98 104
99 100
100 101
101 102
102 103
102 104
103 21
104 105
105 106
106 107
107 109
108 3
109 110
110 111
111 112
111 113
112 113
113 114
114 115
115 116
116 117
117 118
118 4
